%BLOCK LATTICE_CART
       7.620000000000000       0.000000000000000       0.000000000000000
       0.000000000000000       7.620000000000000       0.000000000000000
       0.000000000000000       0.000000000000000      24.606999999999999
%ENDBLOCK LATTICE_CART

%BLOCK POSITIONS_FRAC
  O   0.2500000000000000   0.0000000000000000   0.0000000000000000
  O   0.0000000000000000   0.2500000000000000   0.5000000000000000
  O   0.0000000000000000   0.2500000000000000   0.0000000000000000
  O   0.2500000000000000   0.0000000000000000   0.5000000000000000
  O   0.0000000000000000   0.0000000000000000   0.0919998374446295
  O   0.2500000000000000   0.2500000000000000   0.5919998374446294
  O   0.0000000000000000   0.0000000000000000   0.9080001625553703
  O   0.2500000000000000   0.2500000000000000   0.4080001625553705
  O   0.2500000000000000   0.2500000000000000   0.1870000406388427
  O   0.0000000000000000   0.0000000000000000   0.6870000406388427
  O   0.2500000000000000   0.2500000000000000   0.8129999593611573
  O   0.0000000000000000   0.0000000000000000   0.3129999593611573
  O   0.7500000000000000   0.0000000000000000   0.0000000000000000
  O   0.5000000000000000   0.2500000000000000   0.5000000000000000
  O   0.5000000000000000   0.2500000000000000   0.0000000000000000
  O   0.7500000000000000   0.0000000000000000   0.5000000000000000
  O   0.5000000000000000   0.0000000000000000   0.0919998374446295
  O   0.7500000000000000   0.2500000000000000   0.5919998374446294
  O   0.5000000000000000   0.0000000000000000   0.9080001625553703
  O   0.7500000000000000   0.2500000000000000   0.4080001625553705
  O   0.7500000000000000   0.2500000000000000   0.1870000406388427
  O   0.5000000000000000   0.0000000000000000   0.6870000406388427
  O   0.7500000000000000   0.2500000000000000   0.8129999593611573
  O   0.5000000000000000   0.0000000000000000   0.3129999593611573
  O   0.2500000000000000   0.5000000000000000   0.0000000000000000
  O   0.0000000000000000   0.7500000000000000   0.5000000000000000
  O   0.0000000000000000   0.7500000000000000   0.0000000000000000
  O   0.2500000000000000   0.5000000000000000   0.5000000000000000
  O   0.0000000000000000   0.5000000000000000   0.0919998374446295
  O   0.2500000000000000   0.7500000000000000   0.5919998374446294
  O   0.0000000000000000   0.5000000000000000   0.9080001625553703
  O   0.2500000000000000   0.7500000000000000   0.4080001625553705
  O   0.2500000000000000   0.7500000000000000   0.1870000406388427
  O   0.0000000000000000   0.5000000000000000   0.6870000406388427
  O   0.2500000000000000   0.7500000000000000   0.8129999593611573
  O   0.0000000000000000   0.5000000000000000   0.3129999593611573
  O   0.7500000000000000   0.5000000000000000   0.0000000000000000
  O   0.5000000000000000   0.7500000000000000   0.5000000000000000
  O   0.5000000000000000   0.7500000000000000   0.0000000000000000
  O   0.7500000000000000   0.5000000000000000   0.5000000000000000
  O   0.5000000000000000   0.5000000000000000   0.0919998374446295
  O   0.7500000000000000   0.7500000000000000   0.5919998374446294
  O   0.5000000000000000   0.5000000000000000   0.9080001625553703
  O   0.7500000000000000   0.7500000000000000   0.4080001625553705
  O   0.7500000000000000   0.7500000000000000   0.1870000406388427
  O   0.5000000000000000   0.5000000000000000   0.6870000406388427
  O   0.7500000000000000   0.7500000000000000   0.8129999593611573
  O   0.5000000000000000   0.5000000000000000   0.3129999593611573
 Cu   0.0000000000000000   0.0000000000000000   0.0000000000000000
 Cu   0.2500000000000000   0.2500000000000000   0.5000000000000000
 Cu   0.5000000000000000   0.0000000000000000   0.0000000000000000
 Cu   0.7500000000000000   0.2500000000000000   0.5000000000000000
 Cu   0.0000000000000000   0.5000000000000000   0.0000000000000000
 Cu   0.2500000000000000   0.7500000000000000   0.5000000000000000
 Cu   0.5000000000000000   0.5000000000000000   0.0000000000000000
 Cu   0.7500000000000000   0.7500000000000000   0.5000000000000000
 Sr   0.0000000000000000   0.0000000000000000   0.4280001625553704
 Sr   0.2500000000000000   0.2500000000000000   0.9280001625553704
 Sr   0.0000000000000000   0.0000000000000000   0.5719998374446296
 Sr   0.2500000000000000   0.2500000000000000   0.0719998374446295
 Sr   0.5000000000000000   0.0000000000000000   0.4280001625553704
 Sr   0.7500000000000000   0.2500000000000000   0.9280001625553704
 Sr   0.5000000000000000   0.0000000000000000   0.5719998374446296
 Sr   0.7500000000000000   0.2500000000000000   0.0719998374446295
 Sr   0.0000000000000000   0.5000000000000000   0.4280001625553704
 Sr   0.2500000000000000   0.7500000000000000   0.9280001625553704
 Sr   0.0000000000000000   0.5000000000000000   0.5719998374446296
 Sr   0.2500000000000000   0.7500000000000000   0.0719998374446295
 Sr   0.5000000000000000   0.5000000000000000   0.4280001625553704
 Sr   0.7500000000000000   0.7500000000000000   0.9280001625553704
 Sr   0.5000000000000000   0.5000000000000000   0.5719998374446296
 Sr   0.7500000000000000   0.7500000000000000   0.0719998374446295
 Bi   0.0000000000000000   0.0000000000000000   0.1829999593611575
 Bi   0.2500000000000000   0.2500000000000000   0.6829999593611574
 Bi   0.0000000000000000   0.0000000000000000   0.8170000406388426
 Bi   0.2500000000000000   0.2500000000000000   0.3170000406388425
 Bi   0.5000000000000000   0.0000000000000000   0.1829999593611575
 Bi   0.7500000000000000   0.2500000000000000   0.6829999593611574
 Bi   0.5000000000000000   0.0000000000000000   0.8170000406388426
 Bi   0.7500000000000000   0.2500000000000000   0.3170000406388425
 Bi   0.0000000000000000   0.5000000000000000   0.1829999593611575
 Bi   0.2500000000000000   0.7500000000000000   0.6829999593611574
 Bi   0.0000000000000000   0.5000000000000000   0.8170000406388426
 Bi   0.2500000000000000   0.7500000000000000   0.3170000406388425
 Bi   0.5000000000000000   0.5000000000000000   0.1829999593611575
 Bi   0.7500000000000000   0.7500000000000000   0.6829999593611574
 Bi   0.5000000000000000   0.5000000000000000   0.8170000406388426
 Bi   0.7500000000000000   0.7500000000000000   0.3170000406388425
%ENDBLOCK POSITIONS_FRAC

%BLOCK KPOINTS_LIST
   0.3333333333333333   0.3333333333333333   0.0000000000000000       0.222222222222222
   0.3333333333333333   0.0000000000000000   0.0000000000000000       0.222222222222222
   0.3333333333333333  -0.3333333333333333   0.0000000000000000       0.222222222222222
   0.0000000000000000   0.3333333333333333   0.0000000000000000       0.222222222222222
   0.0000000000000000   0.0000000000000000   0.0000000000000000       0.111111111111111
%ENDBLOCK KPOINTS_LIST

%BLOCK CELL_CONSTRAINTS
       1       2       3
       4       5       6
%ENDBLOCK CELL_CONSTRAINTS

FIX_COM : false
%BLOCK IONIC_CONSTRAINTS
%ENDBLOCK IONIC_CONSTRAINTS

%BLOCK SPECIES_MASS
       O     15.9989995956
      Cu     63.5460014343
      Sr     87.6200027466
      Bi    208.9799957275
%ENDBLOCK SPECIES_MASS

%BLOCK SPECIES_POT
       O  O_00PBE.usp
      Cu  Cu_00PBE.usp
      Sr  Sr_00PBE.usp
      Bi  Bi_00PBE.usp
%ENDBLOCK SPECIES_POT

%BLOCK SPECIES_LCAO_STATES
       O         2
      Cu         3
      Sr         4
      Bi         3
%ENDBLOCK SPECIES_LCAO_STATES

