 $contrl scftyp=rhf runtyp=gradient inttyp=hondo units=angs nprint=-5 $end
 $system mwords=8   memddi=0 timlim=235 parall=.true. $end
 $scf dirscf=.t. fdiff=.f. $end
 $statpt opttol=0.00001 nprt=-2 npun=-2 $end
 $force method=numeric nvib=2 $end
 $data
 Opt OF Rob Schmitt's HEDM Molecule Minus N2: E=-922.774901
C1
 N           7.0  -0.2923756878  -0.4847407939  -0.6364978780
 S   8
  1     11420.00000000       0.00052300
  2      1712.00000000       0.00404500
  3       389.30000000       0.02077500
  4       110.00000000       0.08072700
  5        35.57000000       0.23307400
  6        12.54000000       0.43350100
  7         4.64400000       0.34747200
  8         0.51180000      -0.00850800
 S   8
  1     11420.00000000      -0.00011500
  2      1712.00000000      -0.00089500
  3       389.30000000      -0.00462400
  4       110.00000000      -0.01852800
  5        35.57000000      -0.05733900
  6        12.54000000      -0.13207600
  7         4.64400000      -0.17251000
  8         0.51180000       0.59994400
 S   1
  1         1.29300000       1.00000000
 S   1
  1         0.17870000       1.00000000
 P   3
  1        26.63000000       0.01467000
  2         5.94800000       0.09176400
  3         1.74200000       0.29868300
 P   1
  1         0.55500000       1.00000000
 P   1
  1         0.17250000       1.00000000
 D   1
  1         1.65400000       1.00000000
 D   1
  1         0.46900000       1.00000000
 F   1
  1         1.09300000       1.00000000

 N           7.0   0.3061046090  -0.5449936036   0.5720967867
 S   8
  1     11420.00000000       0.00052300
  2      1712.00000000       0.00404500
  3       389.30000000       0.02077500
  4       110.00000000       0.08072700
  5        35.57000000       0.23307400
  6        12.54000000       0.43350100
  7         4.64400000       0.34747200
  8         0.51180000      -0.00850800
 S   8
  1     11420.00000000      -0.00011500
  2      1712.00000000      -0.00089500
  3       389.30000000      -0.00462400
  4       110.00000000      -0.01852800
  5        35.57000000      -0.05733900
  6        12.54000000      -0.13207600
  7         4.64400000      -0.17251000
  8         0.51180000       0.59994400
 S   1
  1         1.29300000       1.00000000
 S   1
  1         0.17870000       1.00000000
 P   3
  1        26.63000000       0.01467000
  2         5.94800000       0.09176400
  3         1.74200000       0.29868300
 P   1
  1         0.55500000       1.00000000
 P   1
  1         0.17250000       1.00000000
 D   1
  1         1.65400000       1.00000000
 D   1
  1         0.46900000       1.00000000
 F   1
  1         1.09300000       1.00000000

 C           6.0   0.1138839249   0.1118525331  -1.7770786634
 S   8
  1      8236.00000000       0.00053100
  2      1235.00000000       0.00410800
  3       280.80000000       0.02108700
  4        79.27000000       0.08185300
  5        25.59000000       0.23481700
  6         8.99700000       0.43440100
  7         3.31900000       0.34612900
  8         0.36430000      -0.00898300
 S   8
  1      8236.00000000      -0.00011300
  2      1235.00000000      -0.00087800
  3       280.80000000      -0.00454000
  4        79.27000000      -0.01813300
  5        25.59000000      -0.05576000
  6         8.99700000      -0.12689500
  7         3.31900000      -0.17035200
  8         0.36430000       0.59868400
 S   1
  1         0.90590000       1.00000000
 S   1
  1         0.12850000       1.00000000
 P   3
  1        18.71000000       0.01403100
  2         4.13300000       0.08686600
  3         1.20000000       0.29021600
 P   1
  1         0.38270000       1.00000000
 P   1
  1         0.12090000       1.00000000
 D   1
  1         1.09700000       1.00000000
 D   1
  1         0.31800000       1.00000000
 F   1
  1         0.76100000       1.00000000

 C           6.0  -0.1150877954  -0.0895801601   1.7705916617
 S   8
  1      8236.00000000       0.00053100
  2      1235.00000000       0.00410800
  3       280.80000000       0.02108700
  4        79.27000000       0.08185300
  5        25.59000000       0.23481700
  6         8.99700000       0.43440100
  7         3.31900000       0.34612900
  8         0.36430000      -0.00898300
 S   8
  1      8236.00000000      -0.00011300
  2      1235.00000000      -0.00087800
  3       280.80000000      -0.00454000
  4        79.27000000      -0.01813300
  5        25.59000000      -0.05576000
  6         8.99700000      -0.12689500
  7         3.31900000      -0.17035200
  8         0.36430000       0.59868400
 S   1
  1         0.90590000       1.00000000
 S   1
  1         0.12850000       1.00000000
 P   3
  1        18.71000000       0.01403100
  2         4.13300000       0.08686600
  3         1.20000000       0.29021600
 P   1
  1         0.38270000       1.00000000
 P   1
  1         0.12090000       1.00000000
 D   1
  1         1.09700000       1.00000000
 D   1
  1         0.31800000       1.00000000
 F   1
  1         0.76100000       1.00000000

 N           7.0  -0.7715541362  -0.1264193039  -2.7162425384
 S   8
  1     11420.00000000       0.00052300
  2      1712.00000000       0.00404500
  3       389.30000000       0.02077500
  4       110.00000000       0.08072700
  5        35.57000000       0.23307400
  6        12.54000000       0.43350100
  7         4.64400000       0.34747200
  8         0.51180000      -0.00850800
 S   8
  1     11420.00000000      -0.00011500
  2      1712.00000000      -0.00089500
  3       389.30000000      -0.00462400
  4       110.00000000      -0.01852800
  5        35.57000000      -0.05733900
  6        12.54000000      -0.13207600
  7         4.64400000      -0.17251000
  8         0.51180000       0.59994400
 S   1
  1         1.29300000       1.00000000
 S   1
  1         0.17870000       1.00000000
 P   3
  1        26.63000000       0.01467000
  2         5.94800000       0.09176400
  3         1.74200000       0.29868300
 P   1
  1         0.55500000       1.00000000
 P   1
  1         0.17250000       1.00000000
 D   1
  1         1.65400000       1.00000000
 D   1
  1         0.46900000       1.00000000
 F   1
  1         1.09300000       1.00000000

 N           7.0   0.7700281634  -0.4202839365   2.6817197305
 S   8
  1     11420.00000000       0.00052300
  2      1712.00000000       0.00404500
  3       389.30000000       0.02077500
  4       110.00000000       0.08072700
  5        35.57000000       0.23307400
  6        12.54000000       0.43350100
  7         4.64400000       0.34747200
  8         0.51180000      -0.00850800
 S   8
  1     11420.00000000      -0.00011500
  2      1712.00000000      -0.00089500
  3       389.30000000      -0.00462400
  4       110.00000000      -0.01852800
  5        35.57000000      -0.05733900
  6        12.54000000      -0.13207600
  7         4.64400000      -0.17251000
  8         0.51180000       0.59994400
 S   1
  1         1.29300000       1.00000000
 S   1
  1         0.17870000       1.00000000
 P   3
  1        26.63000000       0.01467000
  2         5.94800000       0.09176400
  3         1.74200000       0.29868300
 P   1
  1         0.55500000       1.00000000
 P   1
  1         0.17250000       1.00000000
 D   1
  1         1.65400000       1.00000000
 D   1
  1         0.46900000       1.00000000
 F   1
  1         1.09300000       1.00000000

 N           7.0  -1.7343756288  -0.8761894388  -2.1234362073
 S   8
  1     11420.00000000       0.00052300
  2      1712.00000000       0.00404500
  3       389.30000000       0.02077500
  4       110.00000000       0.08072700
  5        35.57000000       0.23307400
  6        12.54000000       0.43350100
  7         4.64400000       0.34747200
  8         0.51180000      -0.00850800
 S   8
  1     11420.00000000      -0.00011500
  2      1712.00000000      -0.00089500
  3       389.30000000      -0.00462400
  4       110.00000000      -0.01852800
  5        35.57000000      -0.05733900
  6        12.54000000      -0.13207600
  7         4.64400000      -0.17251000
  8         0.51180000       0.59994400
 S   1
  1         1.29300000       1.00000000
 S   1
  1         0.17870000       1.00000000
 P   3
  1        26.63000000       0.01467000
  2         5.94800000       0.09176400
  3         1.74200000       0.29868300
 P   1
  1         0.55500000       1.00000000
 P   1
  1         0.17250000       1.00000000
 D   1
  1         1.65400000       1.00000000
 D   1
  1         0.46900000       1.00000000
 F   1
  1         1.09300000       1.00000000

 N           7.0   1.7476960738  -1.0817829267   2.0136251234
 S   8
  1     11420.00000000       0.00052300
  2      1712.00000000       0.00404500
  3       389.30000000       0.02077500
  4       110.00000000       0.08072700
  5        35.57000000       0.23307400
  6        12.54000000       0.43350100
  7         4.64400000       0.34747200
  8         0.51180000      -0.00850800
 S   8
  1     11420.00000000      -0.00011500
  2      1712.00000000      -0.00089500
  3       389.30000000      -0.00462400
  4       110.00000000      -0.01852800
  5        35.57000000      -0.05733900
  6        12.54000000      -0.13207600
  7         4.64400000      -0.17251000
  8         0.51180000       0.59994400
 S   1
  1         1.29300000       1.00000000
 S   1
  1         0.17870000       1.00000000
 P   3
  1        26.63000000       0.01467000
  2         5.94800000       0.09176400
  3         1.74200000       0.29868300
 P   1
  1         0.55500000       1.00000000
 P   1
  1         0.17250000       1.00000000
 D   1
  1         1.65400000       1.00000000
 D   1
  1         0.46900000       1.00000000
 F   1
  1         1.09300000       1.00000000

 N           7.0  -1.4540675875  -1.1225802967  -0.8653403178
 S   8
  1     11420.00000000       0.00052300
  2      1712.00000000       0.00404500
  3       389.30000000       0.02077500
  4       110.00000000       0.08072700
  5        35.57000000       0.23307400
  6        12.54000000       0.43350100
  7         4.64400000       0.34747200
  8         0.51180000      -0.00850800
 S   8
  1     11420.00000000      -0.00011500
  2      1712.00000000      -0.00089500
  3       389.30000000      -0.00462400
  4       110.00000000      -0.01852800
  5        35.57000000      -0.05733900
  6        12.54000000      -0.13207600
  7         4.64400000      -0.17251000
  8         0.51180000       0.59994400
 S   1
  1         1.29300000       1.00000000
 S   1
  1         0.17870000       1.00000000
 P   3
  1        26.63000000       0.01467000
  2         5.94800000       0.09176400
  3         1.74200000       0.29868300
 P   1
  1         0.55500000       1.00000000
 P   1
  1         0.17250000       1.00000000
 D   1
  1         1.65400000       1.00000000
 D   1
  1         0.46900000       1.00000000
 F   1
  1         1.09300000       1.00000000

 N           7.0   1.4766626660  -1.1866195092   0.7333612925
 S   8
  1     11420.00000000       0.00052300
  2      1712.00000000       0.00404500
  3       389.30000000       0.02077500
  4       110.00000000       0.08072700
  5        35.57000000       0.23307400
  6        12.54000000       0.43350100
  7         4.64400000       0.34747200
  8         0.51180000      -0.00850800
 S   8
  1     11420.00000000      -0.00011500
  2      1712.00000000      -0.00089500
  3       389.30000000      -0.00462400
  4       110.00000000      -0.01852800
  5        35.57000000      -0.05733900
  6        12.54000000      -0.13207600
  7         4.64400000      -0.17251000
  8         0.51180000       0.59994400
 S   1
  1         1.29300000       1.00000000
 S   1
  1         0.17870000       1.00000000
 P   3
  1        26.63000000       0.01467000
  2         5.94800000       0.09176400
  3         1.74200000       0.29868300
 P   1
  1         0.55500000       1.00000000
 P   1
  1         0.17250000       1.00000000
 D   1
  1         1.65400000       1.00000000
 D   1
  1         0.46900000       1.00000000
 F   1
  1         1.09300000       1.00000000

 N           7.0   1.3227499802   0.8948944079  -1.8807281948
 S   8
  1     11420.00000000       0.00052300
  2      1712.00000000       0.00404500
  3       389.30000000       0.02077500
  4       110.00000000       0.08072700
  5        35.57000000       0.23307400
  6        12.54000000       0.43350100
  7         4.64400000       0.34747200
  8         0.51180000      -0.00850800
 S   8
  1     11420.00000000      -0.00011500
  2      1712.00000000      -0.00089500
  3       389.30000000      -0.00462400
  4       110.00000000      -0.01852800
  5        35.57000000      -0.05733900
  6        12.54000000      -0.13207600
  7         4.64400000      -0.17251000
  8         0.51180000       0.59994400
 S   1
  1         1.29300000       1.00000000
 S   1
  1         0.17870000       1.00000000
 P   3
  1        26.63000000       0.01467000
  2         5.94800000       0.09176400
  3         1.74200000       0.29868300
 P   1
  1         0.55500000       1.00000000
 P   1
  1         0.17250000       1.00000000
 D   1
  1         1.65400000       1.00000000
 D   1
  1         0.46900000       1.00000000
 F   1
  1         1.09300000       1.00000000

 N           7.0  -1.3366923260   0.6555728158   1.9655505507
 S   8
  1     11420.00000000       0.00052300
  2      1712.00000000       0.00404500
  3       389.30000000       0.02077500
  4       110.00000000       0.08072700
  5        35.57000000       0.23307400
  6        12.54000000       0.43350100
  7         4.64400000       0.34747200
  8         0.51180000      -0.00850800
 S   8
  1     11420.00000000      -0.00011500
  2      1712.00000000      -0.00089500
  3       389.30000000      -0.00462400
  4       110.00000000      -0.01852800
  5        35.57000000      -0.05733900
  6        12.54000000      -0.13207600
  7         4.64400000      -0.17251000
  8         0.51180000       0.59994400
 S   1
  1         1.29300000       1.00000000
 S   1
  1         0.17870000       1.00000000
 P   3
  1        26.63000000       0.01467000
  2         5.94800000       0.09176400
  3         1.74200000       0.29868300
 P   1
  1         0.55500000       1.00000000
 P   1
  1         0.17250000       1.00000000
 D   1
  1         1.65400000       1.00000000
 D   1
  1         0.46900000       1.00000000
 F   1
  1         1.09300000       1.00000000

 O           8.0   1.8458222688   0.9529413975  -2.9833223367
 S   8
  1     15330.00000000       0.00050800
  2      2299.00000000       0.00392900
  3       522.40000000       0.02024300
  4       147.30000000       0.07918100
  5        47.55000000       0.23068700
  6        16.76000000       0.43311800
  7         6.20700000       0.35026000
  8         0.68820000      -0.00815400
 S   8
  1     15330.00000000      -0.00011500
  2      2299.00000000      -0.00089500
  3       522.40000000      -0.00463600
  4       147.30000000      -0.01872400
  5        47.55000000      -0.05846300
  6        16.76000000      -0.13646300
  7         6.20700000      -0.17574000
  8         0.68820000       0.60341800
 S   1
  1         1.75200000       1.00000000
 S   1
  1         0.23840000       1.00000000
 P   3
  1        34.46000000       0.01592800
  2         7.74900000       0.09974000
  3         2.28000000       0.31049200
 P   1
  1         0.71560000       1.00000000
 P   1
  1         0.21400000       1.00000000
 D   1
  1         2.31400000       1.00000000
 D   1
  1         0.64500000       1.00000000
 F   1
  1         1.42800000       1.00000000

 O           8.0  -1.7183653897   1.3009298792   0.9910111763
 S   8
  1     15330.00000000       0.00050800
  2      2299.00000000       0.00392900
  3       522.40000000       0.02024300
  4       147.30000000       0.07918100
  5        47.55000000       0.23068700
  6        16.76000000       0.43311800
  7         6.20700000       0.35026000
  8         0.68820000      -0.00815400
 S   8
  1     15330.00000000      -0.00011500
  2      2299.00000000      -0.00089500
  3       522.40000000      -0.00463600
  4       147.30000000      -0.01872400
  5        47.55000000      -0.05846300
  6        16.76000000      -0.13646300
  7         6.20700000      -0.17574000
  8         0.68820000       0.60341800
 S   1
  1         1.75200000       1.00000000
 S   1
  1         0.23840000       1.00000000
 P   3
  1        34.46000000       0.01592800
  2         7.74900000       0.09974000
  3         2.28000000       0.31049200
 P   1
  1         0.71560000       1.00000000
 P   1
  1         0.21400000       1.00000000
 D   1
  1         2.31400000       1.00000000
 D   1
  1         0.64500000       1.00000000
 F   1
  1         1.42800000       1.00000000

 O           8.0   1.6898937554   1.4266879203  -0.8343743609
 S   8
  1     15330.00000000       0.00050800
  2      2299.00000000       0.00392900
  3       522.40000000       0.02024300
  4       147.30000000       0.07918100
  5        47.55000000       0.23068700
  6        16.76000000       0.43311800
  7         6.20700000       0.35026000
  8         0.68820000      -0.00815400
 S   8
  1     15330.00000000      -0.00011500
  2      2299.00000000      -0.00089500
  3       522.40000000      -0.00463600
  4       147.30000000      -0.01872400
  5        47.55000000      -0.05846300
  6        16.76000000      -0.13646300
  7         6.20700000      -0.17574000
  8         0.68820000       0.60341800
 S   1
  1         1.75200000       1.00000000
 S   1
  1         0.23840000       1.00000000
 P   3
  1        34.46000000       0.01592800
  2         7.74900000       0.09974000
  3         2.28000000       0.31049200
 P   1
  1         0.71560000       1.00000000
 P   1
  1         0.21400000       1.00000000
 D   1
  1         2.31400000       1.00000000
 D   1
  1         0.64500000       1.00000000
 F   1
  1         1.42800000       1.00000000

 O           8.0  -1.8540628898   0.5739910151   3.0694741745
 S   8
  1     15330.00000000       0.00050800
  2      2299.00000000       0.00392900
  3       522.40000000       0.02024300
  4       147.30000000       0.07918100
  5        47.55000000       0.23068700
  6        16.76000000       0.43311800
  7         6.20700000       0.35026000
  8         0.68820000      -0.00815400
 S   8
  1     15330.00000000      -0.00011500
  2      2299.00000000      -0.00089500
  3       522.40000000      -0.00463600
  4       147.30000000      -0.01872400
  5        47.55000000      -0.05846300
  6        16.76000000      -0.13646300
  7         6.20700000      -0.17574000
  8         0.68820000       0.60341800
 S   1
  1         1.75200000       1.00000000
 S   1
  1         0.23840000       1.00000000
 P   3
  1        34.46000000       0.01592800
  2         7.74900000       0.09974000
  3         2.28000000       0.31049200
 P   1
  1         0.71560000       1.00000000
 P   1
  1         0.21400000       1.00000000
 D   1
  1         2.31400000       1.00000000
 D   1
  1         0.64500000       1.00000000
 F   1
  1         1.42800000       1.00000000

 C           6.0  49.8849122056  -0.0945801601   1.7705916617
 S   8
  1      8236.00000000       0.00053100
  2      1235.00000000       0.00410800
  3       280.80000000       0.02108700
  4        79.27000000       0.08185300
  5        25.59000000       0.23481700
  6         8.99700000       0.43440100
  7         3.31900000       0.34612900
  8         0.36430000      -0.00898300
 S   8
  1      8236.00000000      -0.00011300
  2      1235.00000000      -0.00087800
  3       280.80000000      -0.00454000
  4        79.27000000      -0.01813300
  5        25.59000000      -0.05576000
  6         8.99700000      -0.12689500
  7         3.31900000      -0.17035200
  8         0.36430000       0.59868400
 S   1
  1         0.90590000       1.00000000
 S   1
  1         0.12850000       1.00000000
 P   3
  1        18.71000000       0.01403100
  2         4.13300000       0.08686600
  3         1.20000000       0.29021600
 P   1
  1         0.38270000       1.00000000
 P   1
  1         0.12090000       1.00000000
 D   1
  1         1.09700000       1.00000000
 D   1
  1         0.31800000       1.00000000
 F   1
  1         0.76100000       1.00000000

 O           8.0  48.4459371112   -0.0895801601   1.7705916617
 S   8
  1     15330.00000000       0.00050800
  2      2299.00000000       0.00392900
  3       522.40000000       0.02024300
  4       147.30000000       0.07918100
  5        47.55000000       0.23068700
  6        16.76000000       0.43311800
  7         6.20700000       0.35026000
  8         0.68820000      -0.00815400
 S   8
  1     15330.00000000      -0.00011500
  2      2299.00000000      -0.00089500
  3       522.40000000      -0.00463600
  4       147.30000000      -0.01872400
  5        47.55000000      -0.05846300
  6        16.76000000      -0.13646300
  7         6.20700000      -0.17574000
  8         0.68820000       0.60341800
 S   1
  1         1.75200000       1.00000000
 S   1
  1         0.23840000       1.00000000
 P   3
  1        34.46000000       0.01592800
  2         7.74900000       0.09974000
  3         2.28000000       0.31049200
 P   1
  1         0.71560000       1.00000000
 P   1
  1         0.21400000       1.00000000
 D   1
  1         2.31400000       1.00000000
 D   1
  1         0.64500000       1.00000000
 F   1
  1         1.42800000       1.00000000

 O           8.0  51.3459371112   -0.0895801601   1.7705916617
 S   8
  1     15330.00000000       0.00050800
  2      2299.00000000       0.00392900
  3       522.40000000       0.02024300
  4       147.30000000       0.07918100
  5        47.55000000       0.23068700
  6        16.76000000       0.43311800
  7         6.20700000       0.35026000
  8         0.68820000      -0.00815400
 S   8
  1     15330.00000000      -0.00011500
  2      2299.00000000      -0.00089500
  3       522.40000000      -0.00463600
  4       147.30000000      -0.01872400
  5        47.55000000      -0.05846300
  6        16.76000000      -0.13646300
  7         6.20700000      -0.17574000
  8         0.68820000       0.60341800
 S   1
  1         1.75200000       1.00000000
 S   1
  1         0.23840000       1.00000000
 P   3
  1        34.46000000       0.01592800
  2         7.74900000       0.09974000
  3         2.28000000       0.31049200
 P   1
  1         0.71560000       1.00000000
 P   1
  1         0.21400000       1.00000000
 D   1
  1         2.31400000       1.00000000
 D   1
  1         0.64500000       1.00000000
 F   1
  1         1.42800000       1.00000000

 C           6.0  -49.8849122056  -0.0945801601   1.7705916617
 S   8
  1      8236.00000000       0.00053100
  2      1235.00000000       0.00410800
  3       280.80000000       0.02108700
  4        79.27000000       0.08185300
  5        25.59000000       0.23481700
  6         8.99700000       0.43440100
  7         3.31900000       0.34612900
  8         0.36430000      -0.00898300
 S   8
  1      8236.00000000      -0.00011300
  2      1235.00000000      -0.00087800
  3       280.80000000      -0.00454000
  4        79.27000000      -0.01813300
  5        25.59000000      -0.05576000
  6         8.99700000      -0.12689500
  7         3.31900000      -0.17035200
  8         0.36430000       0.59868400
 S   1
  1         0.90590000       1.00000000
 S   1
  1         0.12850000       1.00000000
 P   3
  1        18.71000000       0.01403100
  2         4.13300000       0.08686600
  3         1.20000000       0.29021600
 P   1
  1         0.38270000       1.00000000
 P   1
  1         0.12090000       1.00000000
 D   1
  1         1.09700000       1.00000000
 D   1
  1         0.31800000       1.00000000
 F   1
  1         0.76100000       1.00000000

 O           8.0  -48.4459371112   -0.0895801601   1.7705916617
 S   8
  1     15330.00000000       0.00050800
  2      2299.00000000       0.00392900
  3       522.40000000       0.02024300
  4       147.30000000       0.07918100
  5        47.55000000       0.23068700
  6        16.76000000       0.43311800
  7         6.20700000       0.35026000
  8         0.68820000      -0.00815400
 S   8
  1     15330.00000000      -0.00011500
  2      2299.00000000      -0.00089500
  3       522.40000000      -0.00463600
  4       147.30000000      -0.01872400
  5        47.55000000      -0.05846300
  6        16.76000000      -0.13646300
  7         6.20700000      -0.17574000
  8         0.68820000       0.60341800
 S   1
  1         1.75200000       1.00000000
 S   1
  1         0.23840000       1.00000000
 P   3
  1        34.46000000       0.01592800
  2         7.74900000       0.09974000
  3         2.28000000       0.31049200
 P   1
  1         0.71560000       1.00000000
 P   1
  1         0.21400000       1.00000000
 D   1
  1         2.31400000       1.00000000
 D   1
  1         0.64500000       1.00000000
 F   1
  1         1.42800000       1.00000000

 O           8.0  -51.3459371112   -0.0895801601   1.7705916617
 S   8
  1     15330.00000000       0.00050800
  2      2299.00000000       0.00392900
  3       522.40000000       0.02024300
  4       147.30000000       0.07918100
  5        47.55000000       0.23068700
  6        16.76000000       0.43311800
  7         6.20700000       0.35026000
  8         0.68820000      -0.00815400
 S   8
  1     15330.00000000      -0.00011500
  2      2299.00000000      -0.00089500
  3       522.40000000      -0.00463600
  4       147.30000000      -0.01872400
  5        47.55000000      -0.05846300
  6        16.76000000      -0.13646300
  7         6.20700000      -0.17574000
  8         0.68820000       0.60341800
 S   1
  1         1.75200000       1.00000000
 S   1
  1         0.23840000       1.00000000
 P   3
  1        34.46000000       0.01592800
  2         7.74900000       0.09974000
  3         2.28000000       0.31049200
 P   1
  1         0.71560000       1.00000000
 P   1
  1         0.21400000       1.00000000
 D   1
  1         2.31400000       1.00000000
 D   1
  1         0.64500000       1.00000000
 F   1
  1         1.42800000       1.00000000

 C           6.0  -1.8849122056  -50.0945801601   1.7705916617
 S   8
  1      8236.00000000       0.00053100
  2      1235.00000000       0.00410800
  3       280.80000000       0.02108700
  4        79.27000000       0.08185300
  5        25.59000000       0.23481700
  6         8.99700000       0.43440100
  7         3.31900000       0.34612900
  8         0.36430000      -0.00898300
 S   8
  1      8236.00000000      -0.00011300
  2      1235.00000000      -0.00087800
  3       280.80000000      -0.00454000
  4        79.27000000      -0.01813300
  5        25.59000000      -0.05576000
  6         8.99700000      -0.12689500
  7         3.31900000      -0.17035200
  8         0.36430000       0.59868400
 S   1
  1         0.90590000       1.00000000
 S   1
  1         0.12850000       1.00000000
 P   3
  1        18.71000000       0.01403100
  2         4.13300000       0.08686600
  3         1.20000000       0.29021600
 P   1
  1         0.38270000       1.00000000
 P   1
  1         0.12090000       1.00000000
 D   1
  1         1.09700000       1.00000000
 D   1
  1         0.31800000       1.00000000
 F   1
  1         0.76100000       1.00000000

 O           8.0  -0.4459371112   -50.0895801601   1.7705916617
 S   8
  1     15330.00000000       0.00050800
  2      2299.00000000       0.00392900
  3       522.40000000       0.02024300
  4       147.30000000       0.07918100
  5        47.55000000       0.23068700
  6        16.76000000       0.43311800
  7         6.20700000       0.35026000
  8         0.68820000      -0.00815400
 S   8
  1     15330.00000000      -0.00011500
  2      2299.00000000      -0.00089500
  3       522.40000000      -0.00463600
  4       147.30000000      -0.01872400
  5        47.55000000      -0.05846300
  6        16.76000000      -0.13646300
  7         6.20700000      -0.17574000
  8         0.68820000       0.60341800
 S   1
  1         1.75200000       1.00000000
 S   1
  1         0.23840000       1.00000000
 P   3
  1        34.46000000       0.01592800
  2         7.74900000       0.09974000
  3         2.28000000       0.31049200
 P   1
  1         0.71560000       1.00000000
 P   1
  1         0.21400000       1.00000000
 D   1
  1         2.31400000       1.00000000
 D   1
  1         0.64500000       1.00000000
 F   1
  1         1.42800000       1.00000000

 O           8.0  1.0059371112   -50.0895801601   1.7705916617
 S   8
  1     15330.00000000       0.00050800
  2      2299.00000000       0.00392900
  3       522.40000000       0.02024300
  4       147.30000000       0.07918100
  5        47.55000000       0.23068700
  6        16.76000000       0.43311800
  7         6.20700000       0.35026000
  8         0.68820000      -0.00815400
 S   8
  1     15330.00000000      -0.00011500
  2      2299.00000000      -0.00089500
  3       522.40000000      -0.00463600
  4       147.30000000      -0.01872400
  5        47.55000000      -0.05846300
  6        16.76000000      -0.13646300
  7         6.20700000      -0.17574000
  8         0.68820000       0.60341800
 S   1
  1         1.75200000       1.00000000
 S   1
  1         0.23840000       1.00000000
 P   3
  1        34.46000000       0.01592800
  2         7.74900000       0.09974000
  3         2.28000000       0.31049200
 P   1
  1         0.71560000       1.00000000
 P   1
  1         0.21400000       1.00000000
 D   1
  1         2.31400000       1.00000000
 D   1
  1         0.64500000       1.00000000
 F   1
  1         1.42800000       1.00000000

 C           6.0  -1.8849122056   50.0945801601   1.7705916617
 S   8
  1      8236.00000000       0.00053100
  2      1235.00000000       0.00410800
  3       280.80000000       0.02108700
  4        79.27000000       0.08185300
  5        25.59000000       0.23481700
  6         8.99700000       0.43440100